14
-1 39 39 83 54 59 80 95 80 82 23 59 32 46
17 -1 81 65 18 15 98 46 98 43 84 30 40 40
88 39 -1 52 31 43 96 10 71 64 50 53 61 60
14 75 42 -1 62 60 4 81 28 11 47 56 99 35
47 51 79 25 -1 89 73 7 45 91 86 87 23 70
95 82 85 64 69 -1 87 8 33 28 2 74 9 74
52 16 14 34 43 41 -1 24 48 95 96 94 82 71
2 29 16 16 80 93 69 -1 43 26 77 34 76 45
90 40 65 87 99 65 24 48 -1 95 91 74 99 90
22 47 71 48 64 59 43 28 97 -1 65 33 61 22
33 81 34 99 60 96 95 16 26 60 -1 68 46 49
68 77 46 22 96 68 78 86 76 50 91 -1 37 54
13 36 6 42 64 54 26 11 36 35 6 39 -1 4
61 38 1 72 27 64 36 58 80 3 63 42 48 -1
